Route #1: 19 26
Route #2: 11
Route #3: 7 25 20 13 60 16 10 12
Route #4: 5 45 27 59 24 8 49
Route #5: 33 44 15 56
Route #6: 21 55 32 58 40 14 50 51 52
Route #7: 53 22 17 35 37 6 28
Route #8: 54 29 30 2 34
Route #9: 1 46 31 43 38 9 41
Route #10: 36 48 3 42 61
Route #11: 47 4 18 57 62 23 39
cost: 1750.0965298842343
